//Number of items      		
163
//Bin Capacity      
1000
//Known Best Solution  		
71
//Weight of Item
     800         1
     796         1
     790         1
     788         1
     784         1
     782         2
     780         1
     777         1
     765         2
     759         1
     758         1
     756         1
     752         1
     751         1
     747         1
     742         1
     740         1
     717         1
     713         1
     706         1
     705         1
     702         1
     697         1
     694         1
     693         1
     688         1
     675         1
     661         1
     657         1
     654         2
     651         1
     645         1
     644         1
     639         1
     633         2
     631         1
     627         1
     621         1
     612         1
     607         1
     606         1
     600         2
     594         1
     586         2
     584         1
     581         1
     579         1
     577         1
     574         2
     570         1
     569         1
     559         1
     548         1
     541         1
     540         1
     539         1
     529         1
     523         1
     506         1
     505         1
     504         1
     482         1
     467         1
     455         1
     452         1
     450         2
     446         1
     445         1
     444         2
     423         1
     421         1
     416         1
     414         1
     406         1
     405         2
     404         1
     403         1
     400         1
     396         1
     395         1
     392         1
     380         1
     379         1
     376         1
     359         1
     357         1
     355         1
     351         1
     345         1
     342         1
     338         1
     335         1
     322         1
     317         1
     316         1
     307         1
     305         1
     289         1
     287         1
     286         1
     282         1
     277         1
     276         1
     272         1
     267         1
     266         1
     264         1
     263         1
     258         1
     256         1
     253         1
     249         1
     245         1
     244         1
     243         1
     240         2
     237         2
     226         1
     224         2
     222         1
     218         1
     208         1
     200         1
     197         1
     190         1
     188         1
     182         1
     161         1
     159         1
     149         1
     141         1
     138         1
     132         1
     128         1
     127         1
     126         1
     124         1
     119         1
     117         1
     116         1
     103         2
      91         1
      90         1
      77         2
      70         1
      68         1
      59         2
      58         1
      55         1
      54         1
      47         1
      43         1
      42         1
      28         2
      27         1
      17         1
      14         1
      13         1
      10         1
       9         1
       8         1
       5         1
       1         1